60
1 0 26
2 0 9
2 1 10
3 0 32
3 1 1
3 2 30
4 0 3
4 1 17
4 2 21
4 3 31
5 0 14
5 1 20
5 2 22
5 3 11
5 4 19
6 0 15
6 1 2
6 2 6
6 3 24
6 4 13
6 5 11
7 0 7
7 1 25
7 2 22
7 3 22
7 4 30
7 5 12
7 6 11
8 0 30
8 1 10
8 2 30
8 3 22
8 4 29
8 5 16
8 6 29
8 7 16
9 0 31
9 1 17
9 2 5
9 3 17
9 4 25
9 5 21
9 6 23
9 7 13
9 8 18
10 0 24
10 1 15
10 2 19
10 3 1
10 4 17
10 5 20
10 6 22
10 7 28
10 8 28
10 9 3
11 0 25
11 1 4
11 2 29
11 3 27
11 4 31
11 5 13
11 6 24
11 7 34
11 8 24
11 9 10
11 10 33
12 0 35
12 1 13
12 2 33
12 3 17
12 4 12
12 5 18
12 6 15
12 7 2
12 8 11
12 9 27
12 10 28
12 11 16
13 0 4
13 1 5
13 2 30
13 3 4
13 4 33
13 5 12
13 6 6
13 7 10
13 8 30
13 9 11
13 10 3
13 11 26
13 12 27
14 0 30
14 1 27
14 2 7
14 3 13
14 4 15
14 5 12
14 6 16
14 7 27
14 8 18
14 9 4
14 10 9
14 11 32
14 12 24
14 13 29
15 0 7
15 1 13
15 2 18
15 3 34
15 4 14
15 5 29
15 6 14
15 7 15
15 8 10
15 9 15
15 10 33
15 11 23
15 12 4
15 13 35
15 14 13
16 0 24
16 1 12
16 2 13
16 3 4
16 4 14
16 5 9
16 6 26
16 7 18
16 8 30
16 9 30
16 10 28
16 11 13
16 12 19
16 13 33
16 14 17
16 15 25
17 0 6
17 1 30
17 2 12
17 3 5
17 4 33
17 5 15
17 6 23
17 7 16
17 8 22
17 9 25
17 10 4
17 11 17
17 12 3
17 13 33
17 14 27
17 15 10
17 16 20
18 0 23
18 1 35
18 2 8
18 3 14
18 4 32
18 5 16
18 6 24
18 7 26
18 8 3
18 9 31
18 10 4
18 11 11
18 12 21
18 13 24
18 14 27
18 15 20
18 16 20
18 17 31
19 0 27
19 1 21
19 2 16
19 3 2
19 4 21
19 5 23
19 6 28
19 7 33
19 8 28
19 9 11
19 10 32
19 11 4
19 12 3
19 13 11
19 14 6
19 15 30
19 16 16
19 17 35
19 18 29
20 0 35
20 1 26
20 2 21
20 3 8
20 4 23
20 5 22
20 6 27
20 7 5
20 8 28
20 9 26
20 10 13
20 11 32
20 12 8
20 13 11
20 14 10
20 15 22
20 16 16
20 17 7
20 18 23
20 19 20
21 0 17
21 1 12
21 2 29
21 3 18
21 4 14
21 5 16
21 6 7
21 7 23
21 8 20
21 9 29
21 10 11
21 11 10
21 12 19
21 13 20
21 14 10
21 15 16
21 16 30
21 17 20
21 18 6
21 19 15
21 20 2
22 0 3
22 1 26
22 2 9
22 3 25
22 4 15
22 5 13
22 6 7
22 7 24
22 8 26
22 9 7
22 10 23
22 11 7
22 12 16
22 13 10
22 14 23
22 15 26
22 16 23
22 17 16
22 18 15
22 19 24
22 20 5
22 21 22
23 0 11
23 1 17
23 2 10
23 3 10
23 4 7
23 5 5
23 6 14
23 7 6
23 8 6
23 9 13
23 10 31
23 11 9
23 12 34
23 13 14
23 14 19
23 15 28
23 16 24
23 17 21
23 18 32
23 19 32
23 20 17
23 21 6
23 22 7
24 0 1
24 1 25
24 2 24
24 3 24
24 4 2
24 5 6
24 6 4
24 7 35
24 8 4
24 9 21
24 10 1
24 11 6
24 12 15
24 13 2
24 14 14
24 15 12
24 16 16
24 17 5
24 18 27
24 19 1
24 20 12
24 21 14
24 22 18
24 23 33
25 0 19
25 1 26
25 2 20
25 3 20
25 4 32
25 5 6
25 6 21
25 7 17
25 8 22
25 9 20
25 10 21
25 11 6
25 12 3
25 13 4
25 14 28
25 15 29
25 16 9
25 17 22
25 18 21
25 19 24
25 20 9
25 21 33
25 22 16
25 23 16
25 24 2
26 0 3
26 1 33
26 2 35
26 3 30
26 4 32
26 5 3
26 6 27
26 7 9
26 8 12
26 9 35
26 10 28
26 11 12
26 12 20
26 13 8
26 14 4
26 15 11
26 16 19
26 17 14
26 18 20
26 19 9
26 20 35
26 21 6
26 22 33
26 23 15
26 24 21
26 25 16
27 0 20
27 1 23
27 2 34
27 3 16
27 4 27
27 5 4
27 6 26
27 7 28
27 8 5
27 9 21
27 10 30
27 11 13
27 12 34
27 13 24
27 14 28
27 15 32
27 16 1
27 17 34
27 18 14
27 19 1
27 20 26
27 21 24
27 22 22
27 23 30
27 24 3
27 25 22
27 26 4
28 0 24
28 1 20
28 2 15
28 3 20
28 4 9
28 5 29
28 6 15
28 7 22
28 8 17
28 9 5
28 10 11
28 11 35
28 12 34
28 13 17
28 14 30
28 15 25
28 16 12
28 17 19
28 18 10
28 19 22
28 20 14
28 21 30
28 22 24
28 23 5
28 24 20
28 25 33
28 26 5
28 27 11
29 0 12
29 1 23
29 2 30
29 3 11
29 4 12
29 5 30
29 6 34
29 7 16
29 8 16
29 9 28
29 10 22
29 11 25
29 12 2
29 13 13
29 14 12
29 15 27
29 16 13
29 17 35
29 18 33
29 19 1
29 20 16
29 21 10
29 22 23
29 23 28
29 24 8
29 25 11
29 26 34
29 27 6
29 28 24
30 0 10
30 1 12
30 2 25
30 3 6
30 4 5
30 5 35
30 6 5
30 7 10
30 8 31
30 9 8
30 10 33
30 11 34
30 12 5
30 13 12
30 14 15
30 15 23
30 16 8
30 17 19
30 18 4
30 19 22
30 20 14
30 21 24
30 22 16
30 23 31
30 24 2
30 25 7
30 26 22
30 27 12
30 28 25
30 29 19
31 0 26
31 1 34
31 2 11
31 3 32
31 4 21
31 5 9
31 6 8
31 7 30
31 8 24
31 9 9
31 10 26
31 11 15
31 12 26
31 13 23
31 14 31
31 15 1
31 16 12
31 17 12
31 18 19
31 19 13
31 20 11
31 21 28
31 22 11
31 23 2
31 24 32
31 25 11
31 26 26
31 27 19
31 28 30
31 29 13
31 30 29
32 0 27
32 1 2
32 2 8
32 3 19
32 4 29
32 5 15
32 6 21
32 7 18
32 8 21
32 9 27
32 10 4
32 11 20
32 12 9
32 13 15
32 14 29
32 15 16
32 16 6
32 17 17
32 18 5
32 19 4
32 20 34
32 21 25
32 22 25
32 23 11
32 24 19
32 25 14
32 26 8
32 27 8
32 28 5
32 29 23
32 30 7
32 31 27
33 0 12
33 1 7
33 2 4
33 3 20
33 4 34
33 5 12
33 6 29
33 7 17
33 8 9
33 9 33
33 10 16
33 11 18
33 12 19
33 13 18
33 14 28
33 15 26
33 16 25
33 17 12
33 18 23
33 19 30
33 20 24
33 21 35
33 22 23
33 23 30
33 24 30
33 25 7
33 26 24
33 27 16
33 28 28
33 29 26
33 30 17
33 31 6
33 32 24
34 0 11
34 1 22
34 2 4
34 3 27
34 4 8
34 5 24
34 6 21
34 7 10
34 8 17
34 9 4
34 10 31
34 11 24
34 12 20
34 13 15
34 14 3
34 15 23
34 16 32
34 17 22
34 18 24
34 19 19
34 20 2
34 21 28
34 22 16
34 23 11
34 24 30
34 25 23
34 26 18
34 27 4
34 28 10
34 29 6
34 30 4
34 31 16
34 32 19
34 33 20
35 0 33
35 1 20
35 2 27
35 3 22
35 4 13
35 5 2
35 6 15
35 7 22
35 8 2
35 9 6
35 10 7
35 11 24
35 12 12
35 13 21
35 14 26
35 15 15
35 16 26
35 17 31
35 18 2
35 19 26
35 20 18
35 21 17
35 22 6
35 23 22
35 24 22
35 25 5
35 26 34
35 27 2
35 28 7
35 29 9
35 30 1
35 31 8
35 32 34
35 33 9
35 34 13
36 0 12
36 1 8
36 2 15
36 3 22
36 4 29
36 5 18
36 6 6
36 7 35
36 8 2
36 9 29
36 10 6
36 11 31
36 12 19
36 13 11
36 14 29
36 15 18
36 16 4
36 17 20
36 18 22
36 19 10
36 20 7
36 21 4
36 22 29
36 23 5
36 24 10
36 25 19
36 26 34
36 27 2
36 28 28
36 29 11
36 30 29
36 31 13
36 32 9
36 33 26
36 34 8
36 35 27
37 0 12
37 1 2
37 2 3
37 3 24
37 4 8
37 5 18
37 6 25
37 7 2
37 8 7
37 9 28
37 10 28
37 11 8
37 12 35
37 13 7
37 14 11
37 15 24
37 16 15
37 17 21
37 18 20
37 19 23
37 20 31
37 21 31
37 22 17
37 23 34
37 24 30
37 25 10
37 26 28
37 27 32
37 28 2
37 29 18
37 30 30
37 31 14
37 32 8
37 33 18
37 34 35
37 35 5
37 36 16
38 0 32
38 1 23
38 2 18
38 3 31
38 4 32
38 5 3
38 6 17
38 7 20
38 8 2
38 9 30
38 10 9
38 11 21
38 12 30
38 13 28
38 14 3
38 15 12
38 16 19
38 17 34
38 18 10
38 19 3
38 20 15
38 21 29
38 22 2
38 23 8
38 24 10
38 25 25
38 26 34
38 27 10
38 28 5
38 29 7
38 30 11
38 31 11
38 32 5
38 33 6
38 34 10
38 35 26
38 36 20
38 37 12
39 0 30
39 1 20
39 2 33
39 3 32
39 4 10
39 5 22
39 6 32
39 7 14
39 8 22
39 9 3
39 10 17
39 11 23
39 12 24
39 13 22
39 14 20
39 15 9
39 16 25
39 17 22
39 18 33
39 19 30
39 20 30
39 21 29
39 22 12
39 23 31
39 24 14
39 25 1
39 26 1
39 27 23
39 28 33
39 29 10
39 30 34
39 31 7
39 32 16
39 33 28
39 34 30
39 35 1
39 36 17
39 37 17
39 38 6
40 0 12
40 1 7
40 2 2
40 3 13
40 4 10
40 5 1
40 6 23
40 7 28
40 8 20
40 9 31
40 10 34
40 11 18
40 12 15
40 13 14
40 14 3
40 15 31
40 16 15
40 17 28
40 18 1
40 19 1
40 20 8
40 21 32
40 22 29
40 23 23
40 24 23
40 25 28
40 26 28
40 27 32
40 28 4
40 29 2
40 30 35
40 31 8
40 32 6
40 33 15
40 34 5
40 35 17
40 36 17
40 37 15
40 38 2
40 39 19
41 0 34
41 1 15
41 2 14
41 3 10
41 4 8
41 5 33
41 6 24
41 7 29
41 8 6
41 9 5
41 10 23
41 11 13
41 12 12
41 13 10
41 14 2
41 15 16
41 16 27
41 17 33
41 18 6
41 19 18
41 20 35
41 21 27
41 22 4
41 23 6
41 24 19
41 25 24
41 26 31
41 27 33
41 28 21
41 29 10
41 30 23
41 31 22
41 32 32
41 33 12
41 34 32
41 35 26
41 36 8
41 37 29
41 38 13
41 39 24
41 40 26
42 0 12
42 1 16
42 2 34
42 3 8
42 4 33
42 5 17
42 6 23
42 7 1
42 8 17
42 9 9
42 10 10
42 11 33
42 12 28
42 13 22
42 14 12
42 15 27
42 16 7
42 17 28
42 18 19
42 19 34
42 20 9
42 21 2
42 22 8
42 23 23
42 24 19
42 25 3
42 26 24
42 27 7
42 28 16
42 29 11
42 30 9
42 31 25
42 32 22
42 33 30
42 34 19
42 35 17
42 36 22
42 37 3
42 38 31
42 39 1
42 40 19
42 41 22
43 0 5
43 1 9
43 2 1
43 3 20
43 4 22
43 5 12
43 6 34
43 7 4
43 8 32
43 9 20
43 10 11
43 11 1
43 12 35
43 13 25
43 14 6
43 15 15
43 16 6
43 17 2
43 18 12
43 19 29
43 20 31
43 21 4
43 22 20
43 23 25
43 24 22
43 25 21
43 26 30
43 27 28
43 28 8
43 29 31
43 30 31
43 31 23
43 32 13
43 33 25
43 34 29
43 35 29
43 36 8
43 37 14
43 38 31
43 39 5
43 40 18
43 41 17
43 42 30
44 0 34
44 1 34
44 2 17
44 3 12
44 4 33
44 5 22
44 6 19
44 7 3
44 8 26
44 9 10
44 10 32
44 11 2
44 12 26
44 13 22
44 14 16
44 15 3
44 16 34
44 17 8
44 18 31
44 19 31
44 20 34
44 21 17
44 22 4
44 23 11
44 24 23
44 25 33
44 26 14
44 27 22
44 28 31
44 29 23
44 30 19
44 31 23
44 32 22
44 33 25
44 34 24
44 35 15
44 36 26
44 37 29
44 38 25
44 39 16
44 40 4
44 41 25
44 42 21
44 43 16
45 0 3
45 1 27
45 2 31
45 3 22
45 4 35
45 5 35
45 6 30
45 7 19
45 8 34
45 9 19
45 10 31
45 11 5
45 12 6
45 13 35
45 14 17
45 15 34
45 16 20
45 17 18
45 18 26
45 19 29
45 20 15
45 21 10
45 22 35
45 23 31
45 24 20
45 25 32
45 26 16
45 27 13
45 28 19
45 29 33
45 30 24
45 31 19
45 32 32
45 33 7
45 34 8
45 35 26
45 36 29
45 37 3
45 38 31
45 39 22
45 40 19
45 41 30
45 42 19
45 43 27
45 44 34
46 0 7
46 1 7
46 2 16
46 3 5
46 4 8
46 5 29
46 6 35
46 7 7
46 8 12
46 9 16
46 10 16
46 11 6
46 12 19
46 13 1
46 14 35
46 15 32
46 16 10
46 17 10
46 18 19
46 19 30
46 20 35
46 21 26
46 22 25
46 23 17
46 24 24
46 25 26
46 26 20
46 27 12
46 28 10
46 29 8
46 30 12
46 31 18
46 32 32
46 33 28
46 34 25
46 35 29
46 36 29
46 37 29
46 38 12
46 39 19
46 40 2
46 41 6
46 42 3
46 43 2
46 44 25
46 45 22
47 0 25
47 1 27
47 2 24
47 3 18
47 4 6
47 5 22
47 6 8
47 7 12
47 8 25
47 9 19
47 10 18
47 11 11
47 12 20
47 13 17
47 14 4
47 15 8
47 16 26
47 17 30
47 18 3
47 19 34
47 20 12
47 21 23
47 22 14
47 23 19
47 24 14
47 25 15
47 26 9
47 27 22
47 28 33
47 29 30
47 30 35
47 31 29
47 32 7
47 33 32
47 34 23
47 35 9
47 36 24
47 37 15
47 38 34
47 39 32
47 40 3
47 41 26
47 42 35
47 43 15
47 44 21
47 45 2
47 46 5
48 0 22
48 1 23
48 2 33
48 3 12
48 4 11
48 5 1
48 6 34
48 7 35
48 8 5
48 9 14
48 10 25
48 11 14
48 12 14
48 13 21
48 14 34
48 15 17
48 16 8
48 17 14
48 18 34
48 19 13
48 20 15
48 21 32
48 22 22
48 23 9
48 24 35
48 25 3
48 26 18
48 27 4
48 28 2
48 29 16
48 30 21
48 31 26
48 32 24
48 33 21
48 34 14
48 35 34
48 36 29
48 37 16
48 38 35
48 39 24
48 40 24
48 41 3
48 42 27
48 43 22
48 44 22
48 45 31
48 46 34
48 47 28
49 0 31
49 1 22
49 2 29
49 3 25
49 4 24
49 5 8
49 6 8
49 7 8
49 8 9
49 9 6
49 10 16
49 11 23
49 12 3
49 13 29
49 14 23
49 15 27
49 16 13
49 17 31
49 18 29
49 19 32
49 20 15
49 21 18
49 22 13
49 23 25
49 24 19
49 25 27
49 26 29
49 27 26
49 28 17
49 29 34
49 30 10
49 31 3
49 32 32
49 33 20
49 34 8
49 35 9
49 36 33
49 37 24
49 38 11
49 39 5
49 40 35
49 41 32
49 42 30
49 43 1
49 44 23
49 45 7
49 46 13
49 47 28
49 48 35
50 0 29
50 1 17
50 2 30
50 3 19
50 4 4
50 5 22
50 6 11
50 7 2
50 8 17
50 9 23
50 10 11
50 11 30
50 12 18
50 13 20
50 14 8
50 15 34
50 16 9
50 17 12
50 18 12
50 19 28
50 20 33
50 21 27
50 22 12
50 23 25
50 24 34
50 25 12
50 26 15
50 27 33
50 28 1
50 29 32
50 30 32
50 31 27
50 32 19
50 33 27
50 34 10
50 35 24
50 36 15
50 37 25
50 38 32
50 39 3
50 40 32
50 41 2
50 42 24
50 43 24
50 44 17
50 45 15
50 46 23
50 47 29
50 48 8
50 49 6
51 0 1
51 1 6
51 2 13
51 3 21
51 4 12
51 5 23
51 6 9
51 7 10
51 8 30
51 9 13
51 10 24
51 11 2
51 12 33
51 13 5
51 14 4
51 15 25
51 16 15
51 17 29
51 18 28
51 19 24
51 20 5
51 21 14
51 22 14
51 23 13
51 24 1
51 25 22
51 26 15
51 27 25
51 28 19
51 29 29
51 30 15
51 31 6
51 32 7
51 33 28
51 34 1
51 35 23
51 36 28
51 37 12
51 38 30
51 39 13
51 40 3
51 41 16
51 42 19
51 43 25
51 44 13
51 45 18
51 46 22
51 47 22
51 48 12
51 49 2
51 50 27
52 0 1
52 1 27
52 2 11
52 3 1
52 4 1
52 5 9
52 6 21
52 7 9
52 8 9
52 9 24
52 10 18
52 11 10
52 12 29
52 13 23
52 14 27
52 15 25
52 16 35
52 17 24
52 18 35
52 19 6
52 20 5
52 21 28
52 22 3
52 23 31
52 24 17
52 25 15
52 26 25
52 27 7
52 28 17
52 29 33
52 30 2
52 31 6
52 32 11
52 33 30
52 34 7
52 35 25
52 36 2
52 37 7
52 38 6
52 39 18
52 40 12
52 41 26
52 42 5
52 43 28
52 44 2
52 45 34
52 46 35
52 47 3
52 48 20
52 49 3
52 50 10
52 51 29
53 0 19
53 1 17
53 2 8
53 3 7
53 4 5
53 5 2
53 6 17
53 7 31
53 8 20
53 9 2
53 10 25
53 11 5
53 12 23
53 13 23
53 14 1
53 15 4
53 16 25
53 17 22
53 18 9
53 19 8
53 20 5
53 21 1
53 22 4
53 23 17
53 24 29
53 25 23
53 26 31
53 27 16
53 28 20
53 29 17
53 30 21
53 31 27
53 32 15
53 33 19
53 34 13
53 35 30
53 36 9
53 37 2
53 38 2
53 39 33
53 40 32
53 41 14
53 42 17
53 43 4
53 44 12
53 45 27
53 46 31
53 47 25
53 48 28
53 49 4
53 50 21
53 51 35
53 52 13
54 0 26
54 1 21
54 2 16
54 3 25
54 4 6
54 5 24
54 6 6
54 7 7
54 8 22
54 9 29
54 10 9
54 11 2
54 12 14
54 13 2
54 14 15
54 15 20
54 16 34
54 17 26
54 18 22
54 19 33
54 20 22
54 21 4
54 22 31
54 23 8
54 24 4
54 25 16
54 26 30
54 27 17
54 28 10
54 29 6
54 30 3
54 31 28
54 32 30
54 33 5
54 34 15
54 35 11
54 36 30
54 37 8
54 38 9
54 39 34
54 40 20
54 41 23
54 42 1
54 43 26
54 44 12
54 45 15
54 46 22
54 47 24
54 48 8
54 49 10
54 50 12
54 51 31
54 52 13
54 53 2
55 0 22
55 1 16
55 2 34
55 3 23
55 4 28
55 5 18
55 6 26
55 7 34
55 8 12
55 9 25
55 10 8
55 11 33
55 12 28
55 13 31
55 14 6
55 15 8
55 16 27
55 17 14
55 18 28
55 19 11
55 20 4
55 21 8
55 22 25
55 23 29
55 24 9
55 25 17
55 26 6
55 27 21
55 28 26
55 29 15
55 30 11
55 31 2
55 32 34
55 33 27
55 34 34
55 35 4
55 36 25
55 37 3
55 38 1
55 39 8
55 40 13
55 41 17
55 42 22
55 43 22
55 44 21
55 45 30
55 46 18
55 47 2
55 48 22
55 49 15
55 50 5
55 51 34
55 52 1
55 53 13
55 54 31
56 0 6
56 1 13
56 2 26
56 3 34
56 4 7
56 5 19
56 6 3
56 7 5
56 8 22
56 9 33
56 10 7
56 11 7
56 12 23
56 13 24
56 14 1
56 15 30
56 16 8
56 17 14
56 18 5
56 19 27
56 20 26
56 21 23
56 22 11
56 23 13
56 24 2
56 25 28
56 26 1
56 27 33
56 28 9
56 29 27
56 30 18
56 31 11
56 32 23
56 33 7
56 34 21
56 35 29
56 36 23
56 37 27
56 38 32
56 39 22
56 40 22
56 41 3
56 42 18
56 43 6
56 44 32
56 45 30
56 46 23
56 47 32
56 48 24
56 49 15
56 50 29
56 51 9
56 52 5
56 53 14
56 54 21
56 55 10
57 0 6
57 1 5
57 2 24
57 3 32
57 4 31
57 5 29
57 6 6
57 7 17
57 8 6
57 9 9
57 10 4
57 11 30
57 12 11
57 13 25
57 14 32
57 15 22
57 16 27
57 17 16
57 18 31
57 19 32
57 20 28
57 21 11
57 22 2
57 23 1
57 24 10
57 25 8
57 26 15
57 27 26
57 28 23
57 29 6
57 30 28
57 31 33
57 32 19
57 33 21
57 34 1
57 35 13
57 36 5
57 37 6
57 38 16
57 39 3
57 40 29
57 41 11
57 42 28
57 43 8
57 44 23
57 45 33
57 46 21
57 47 5
57 48 5
57 49 21
57 50 5
57 51 34
57 52 3
57 53 8
57 54 25
57 55 8
57 56 10
58 0 13
58 1 34
58 2 31
58 3 21
58 4 35
58 5 7
58 6 7
58 7 32
58 8 7
58 9 5
58 10 3
58 11 15
58 12 14
58 13 24
58 14 32
58 15 21
58 16 19
58 17 6
58 18 2
58 19 32
58 20 9
58 21 18
58 22 12
58 23 29
58 24 25
58 25 23
58 26 12
58 27 32
58 28 30
58 29 5
58 30 22
58 31 33
58 32 9
58 33 9
58 34 14
58 35 10
58 36 30
58 37 2
58 38 2
58 39 8
58 40 35
58 41 14
58 42 14
58 43 25
58 44 23
58 45 28
58 46 35
58 47 26
58 48 12
58 49 7
58 50 23
58 51 20
58 52 34
58 53 30
58 54 21
58 55 10
58 56 19
58 57 21
59 0 26
59 1 10
59 2 18
59 3 7
59 4 20
59 5 5
59 6 6
59 7 15
59 8 1
59 9 19
59 10 19
59 11 28
59 12 25
59 13 6
59 14 6
59 15 26
59 16 9
59 17 7
59 18 27
59 19 2
59 20 18
59 21 14
59 22 19
59 23 34
59 24 12
59 25 34
59 26 22
59 27 30
59 28 18
59 29 34
59 30 18
59 31 19
59 32 14
59 33 22
59 34 26
59 35 28
59 36 24
59 37 30
59 38 9
59 39 12
59 40 26
59 41 8
59 42 24
59 43 31
59 44 23
59 45 22
59 46 4
59 47 10
59 48 8
59 49 25
59 50 7
59 51 13
59 52 34
59 53 1
59 54 14
59 55 3
59 56 21
59 57 25
59 58 9
